
Gurobi 8.1.1 (linux64, Java) logging started Tue Jun  4 10:15:03 2019

Academic license - for non-commercial use only
Optimize a model with 1205 rows, 162006 columns and 324412 nonzeros
Variable types: 0 continuous, 162006 integer (162006 binary)
Coefficient statistics:
  Matrix range     [1e+00, 8e+03]
  Objective range  [1e+00, 1e+00]
  Bounds range     [1e+00, 1e+00]
  RHS range        [1e+00, 1e+00]
Presolve time: 0.78s
Presolved: 1205 rows, 162006 columns, 324412 nonzeros
Variable types: 0 continuous, 162006 integer (162006 binary)
Found heuristic solution: objective 402.0000000

Root relaxation: objective 1.320000e+02, 5435 iterations, 3.51 seconds
Total elapsed time = 11.53s
Total elapsed time = 22.31s

    Nodes    |    Current Node    |     Objective Bounds      |     Work
 Expl Unexpl |  Obj  Depth IntInf | Incumbent    BestBd   Gap | It/Node Time

     0     0  132.00000    0  232  402.00000  132.00000  67.2%     -   27s
H    0     0                     140.0000000  132.00000  5.71%     -   27s
H    0     0                     139.0000000  132.00000  5.04%     -   27s
     0     0  132.00000    0  367  139.00000  132.00000  5.04%     -   30s
H    0     0                     138.0000000  132.00000  4.35%     -   30s
H    0     0                     136.0000000  132.00000  2.94%     -   31s
     0     0  132.00000    0  380  136.00000  132.00000  2.94%     -   32s
     0     0  132.00000    0  229  136.00000  132.00000  2.94%     -   36s
     0     0  132.00000    0  206  136.00000  132.00000  2.94%     -   39s
H    0     0                     133.0000000  132.00000  0.75%     -   39s
     0     0  132.00000    0  274  133.00000  132.00000  0.75%     -   40s
     0     0  132.00000    0  309  133.00000  132.00000  0.75%     -   42s
     0     0  132.00000    0  207  133.00000  132.00000  0.75%     -   45s
     0     0  132.00000    0  200  133.00000  132.00000  0.75%     -   46s
     0     2  132.00000    0  200  133.00000  132.00000  0.75%     -   49s
     2     3  132.00000    0  229  133.00000  132.00000  0.75%  1726   51s
     5     5  132.00000    0  241  133.00000  132.00000  0.75%   690   56s
     7     6  132.00000    0  195  133.00000  132.00000  0.75%   493   61s
     9     8  132.00000    0  210  133.00000  132.00000  0.75%   384   67s
    11     9  132.00000    0  210  133.00000  132.00000  0.75%   314   74s
    12    10  132.00000    0  210  133.00000  132.00000  0.75%   288   75s
    14    12 infeasible   16       133.00000  132.00000  0.75%  9561   95s
    18    11 infeasible   18       133.00000  132.00000  0.75%  7488  107s
    20    10  132.00000   19  200  133.00000  132.00000  0.75%  6799  112s
    22     9 infeasible   20       133.00000  132.00000  0.75%  6194  134s
    24     9  132.00000   21  221  133.00000  132.00000  0.75%  5722  138s
    26     8 infeasible   22       133.00000  132.00000  0.75%  5288  151s
    28     7  132.00000   23  216  133.00000  132.00000  0.75%  4957  156s
    30     7 infeasible   24       133.00000  132.00000  0.75%  4628  163s
    32     6 infeasible   25       133.00000  132.00000  0.75%  4362  165s
    34     5  132.00000   26  214  133.00000  132.00000  0.75%  4117  176s
    36     7  132.00000   27  226  133.00000  132.00000  0.75%  3905  195s
    38     8  132.00000   28  231  133.00000  132.00000  0.75%  3746  209s
    40     8  132.00000   29  228  133.00000  132.00000  0.75%  3618  245s
    43     7 infeasible   29       133.00000  132.00000  0.75%  3410  257s
    47     9  132.00000   31  218  133.00000  132.00000  0.75%  3162  273s
    49     7  132.00000   32  223  133.00000  132.00000  0.75%  3049  311s
    54     8 infeasible   33       133.00000  132.00000  0.75%  2829  322s
    61    10 infeasible   36       133.00000  132.00000  0.75%  2531  331s
    66    12  132.00000   37  222  133.00000  132.00000  0.75%  2357  340s
    69    14  132.00000   38  214  133.00000  132.00000  0.75%  2267  357s
    74    16 infeasible   39       133.00000  132.00000  0.75%  2167  382s
    81    17 infeasible   40       133.00000  132.00000  0.75%  2019  423s
    94    16 infeasible   45       133.00000  132.00000  0.75%  1789  453s
   108    21  132.00000   49  217  133.00000  132.00000  0.75%  1611  493s
   125    33 infeasible   53       133.00000  132.00000  0.75%  1431  552s
   152    45  132.00000   60  219  133.00000  132.00000  0.75%  1238  600s

Cutting planes:
  Gomory: 4
  Cover: 195
  Clique: 31
  MIR: 12
  StrongCG: 19
  Flow cover: 37
  Inf proof: 1

Explored 179 nodes (259170 simplex iterations) in 600.02 seconds
Thread count was 4 (of 4 available processors)

Solution count 6: 133 136 138 ... 402

Time limit reached
Best objective 1.330000000000e+02, best bound 1.320000000000e+02, gap 0.7519%
